Version identifier: 12.10.0.0 | 2019-11-26 | 843d4de
CPXPARAM_WorkMem                                 28672
Tried aggregator 2 times.
Aggregator did 60 substitutions.
Reduced MIP has 325 rows, 400 columns, and 1575 nonzeros.
Reduced MIP has 400 binaries, 0 generals, 0 SOSs, and 0 indicators.
Presolve time = 0,00 sec. (1,46 ticks)
Found incumbent of value 1550,000000 after 0,01 sec. (2,73 ticks)
Probing time = 0,00 sec. (0,62 ticks)
Tried aggregator 1 time.
Detecting symmetries...
MIP Presolve eliminated 60 rows and 0 columns.
MIP Presolve added 120 rows and 0 columns.
Reduced MIP has 385 rows, 400 columns, and 1635 nonzeros.
Reduced MIP has 400 binaries, 0 generals, 0 SOSs, and 0 indicators.
Presolve time = 0,00 sec. (2,02 ticks)
Probing time = 0,00 sec. (0,61 ticks)
Clique table members: 1095.
MIP emphasis: balance optimality and feasibility.
MIP search method: dynamic search.
Parallel mode: deterministic, using up to 16 threads.
Root relaxation solution time = 0,00 sec. (1,45 ticks)

        Nodes                                         Cuts/
   Node  Left     Objective  IInf  Best Integer    Best Bound    ItCnt     Gap

*     0+    0                         1550,0000        0,0000           100,00%
*     0+    0                          774,0000        0,0000           100,00%
*     0+    0                          742,0000        0,0000           100,00%
      0     0      310,0000   259      742,0000      310,0000      142   58,22%
      0     0      310,0000   259      742,0000     Cuts: 119      207   58,22%
      0     0      310,0000   259      742,0000     Cuts: 196      320   58,22%
      0     0      310,0000   259      742,0000     Cuts: 196      425   58,22%
*     0+    0                          725,0000      310,0000            57,24%
*     0+    0                          723,0000      310,0000            57,12%
      0     2      340,0321   274      723,0000      310,0000      517   57,12%
Elapsed time = 0,17 sec. (84,78 ticks, tree = 0,02 MB, solutions = 5)
   1602   882      691,4452    32      723,0000      389,9471    15463   46,07%
*  3509+ 2471                          718,0000      424,1845            40,92%
   4733  3242      516,2829   198      718,0000      445,7429    91143   37,92%

Performing restart 1

Repeating presolve.
Tried aggregator 2 times.
MIP Presolve eliminated 17 rows and 16 columns.
MIP Presolve modified 36 coefficients.
Aggregator did 4 substitutions.
Reduced MIP has 364 rows, 380 columns, and 1515 nonzeros.
Reduced MIP has 380 binaries, 0 generals, 0 SOSs, and 0 indicators.
Presolve time = 0,00 sec. (1,47 ticks)
Tried aggregator 1 time.
Reduced MIP has 364 rows, 380 columns, and 1515 nonzeros.
Reduced MIP has 380 binaries, 0 generals, 0 SOSs, and 0 indicators.
Presolve time = 0,00 sec. (1,25 ticks)
Represolve time = 0,01 sec. (8,09 ticks)
   4837     0      359,8324   380      718,0000       Cuts: 9   112039   35,63%
   4837     0      362,6154   380      718,0000       Cuts: 9   112086   35,63%
   4837     0      364,4457   380      718,0000       Cuts: 5   112121   35,63%
   4837     0      367,0978   380      718,0000       Cuts: 8   112189   35,63%
   4837     2      367,0978   379      718,0000      462,2089   112189   35,63%
   4846     7      415,8765   358      718,0000      462,2089   113167   35,63%
   5696   629      576,1440   231      718,0000      462,2089   160499   35,63%
   6386  1230      537,9722   264      718,0000      462,2089   213003   35,63%
   7268  1822      423,9915   366      718,0000      462,2089   267596   35,63%
   8041  2571      545,5443   311      718,0000      462,2089   329393   35,63%
   8794  3328      494,8107   346      718,0000      462,2089   394736   35,63%

Performing restart 2

Repeating presolve.
Tried aggregator 1 time.
Reduced MIP has 364 rows, 380 columns, and 1515 nonzeros.
Reduced MIP has 380 binaries, 0 generals, 0 SOSs, and 0 indicators.
Presolve time = 0,00 sec. (0,87 ticks)
Tried aggregator 1 time.
Reduced MIP has 364 rows, 380 columns, and 1515 nonzeros.
Reduced MIP has 380 binaries, 0 generals, 0 SOSs, and 0 indicators.
Presolve time = 0,00 sec. (1,25 ticks)
Represolve time = 0,02 sec. (16,18 ticks)
  11124     0      373,2564   380      718,0000       Cuts: 9   551132   35,63%
  11124     0      373,6362   380      718,0000       Cuts: 9   551179   35,63%
  11124     0      375,0785   380      718,0000       Cuts: 5   551247   35,63%
  11124     0      378,6335   380      718,0000      Cuts: 14   551385   35,63%
  11124     0      380,1107   380      718,0000       Cuts: 8   551444   35,63%
  11124     0      381,7889   380      718,0000      Cuts: 17   551550   35,63%
  11124     2      381,7889   379      718,0000      462,2089   551550   35,63%
Elapsed time = 4,01 sec. (3535,00 ticks, tree = 0,02 MB, solutions = 6)
  16429  3987      679,5972   188      718,0000      520,3869   829723   27,52%
  22830  8628      639,1645   172      718,0000      558,2776  1112564   22,25%
* 28272+12460                          717,0000      576,1364            19,65%
  29709 13189      679,1805   236      717,0000      579,2204  1357926   19,22%
* 33880 15922      integral     0      714,0000      589,4781  1528588   17,44%
  35806 16918      682,5958   168      714,0000      593,4458  1606766   16,88%
  41964 20662      697,0342   135      714,0000      604,5792  1863531   15,33%
* 42240+20811                          697,0000      604,9536            13,21%
  46539 18122      684,9441   195      697,0000      611,6840  2055884   12,24%
  51820 20169      693,8595   170      697,0000      619,2277  2289476   11,16%
  57223 21684      694,3255   197      697,0000      627,0657  2493216   10,03%
  62392 22856        cutoff            697,0000      633,6337  2752478    9,09%
  67393 23106        cutoff            697,0000      639,9757  2998414    8,18%
Elapsed time = 14,36 sec. (13073,77 ticks, tree = 103,07 MB, solutions = 9)
  72425 22951        cutoff            697,0000      646,1210  3182648    7,30%
  77508 22062        cutoff            697,0000      653,0174  3435765    6,31%
  82501 20283        cutoff            697,0000      660,4225  3666703    5,25%
  87919 17009        cutoff            697,0000      668,8130  3896904    4,04%
  94184 11809        cutoff            697,0000      678,0541  4095141    2,72%
 104717  1266        cutoff            697,0000      692,7642  4269534    0,61%

Clique cuts applied:  76
Cover cuts applied:  867
Mixed integer rounding cuts applied:  35
Zero-half cuts applied:  15
Lift and project cuts applied:  3
Gomory fractional cuts applied:  39

Root node processing (before b&c):
  Real time             =    0,17 sec. (84,63 ticks)
Parallel b&c, 16 threads:
  Real time             =   22,39 sec. (18772,83 ticks)
  Sync time (average)   =    5,01 sec.
  Wait time (average)   =    0,01 sec.
                          ------------
Total (root+branch&cut) =   22,56 sec. (18857,46 ticks)
